InboundTrucks  = 20;
OutboundTrucks = 20;
InboundDoors   = 15;
OutboundDoors  = 15;
ReleaseTime    = [17,72,108,102,97,8,32,15,63,97,57,60,83,48,100,26,12,62,3,114];
UnloadTime     = [8,13,17,20,35,24,14,5,32,35,28,34,5,26,31,27,9,24,13,31];
LoadTime       = [9,12,10,6,18,11,20,7,22,14,5,16,6,20,18,14,8,24,17,15];
TransferTime   = [| 3,0,0,6,0,0,1,0,0,6,0,0,3,0,0,4,7,0,2,0 | 0,3,0,9,6,0,0,5,0,0,6,0,0,0,0,7,4,0,0,6 | 0,0,0,0,0,0,0,0,1,0,0,5,0,0,1,0,0,4,0,5 | 0,0,0,0,0,0,1,5,0,0,0,0,4,0,0,0,11,0,5,0 | 0,3,12,0,0,0,0,2,6,0,3,0,0,1,0,0,1,0,0,5 | 0,0,1,0,0,0,0,0,3,0,0,0,10,0,2,0,0,4,0,5 | 3,5,0,0,0,5,2,8,11,0,0,8,0,0,10,3,12,0,4,0 | 0,2,0,0,0,7,0,1,0,0,3,0,0,0,0,6,6,0,0,6 | 0,10,3,0,0,3,0,0,1,0,0,0,4,0,0,0,0,6,0,0 | 0,0,0,0,0,0,0,0,0,5,0,0,0,0,0,4,0,0,3,0 | 0,6,0,0,1,0,0,0,0,0,0,0,0,0,0,7,0,0,10,0 | 0,0,0,10,0,2,0,0,1,0,0,0,0,0,6,0,6,0,0,0 | 0,0,0,0,0,0,0,0,0,0,0,0,4,0,8,1,0,12,5,0 | 0,2,0,0,1,0,0,0,0,0,2,0,0,0,0,0,2,0,10,4 | 7,0,2,4,0,2,12,0,5,0,0,1,0,0,1,0,0,2,0,0 | 0,0,0,1,0,0,0,0,0,6,0,0,4,0,0,4,7,0,0,0 | 0,1,0,0,5,0,0,1,0,0,3,0,11,0,0,0,3,0,0,0 | 0,0,6,0,0,1,0,0,6,0,0,0,0,0,0,0,0,0,0,0 | 1,0,0,0,0,0,6,0,0,6,0,0,0,0,0,5,0,0,3,0 | 0,1,0,0,0,0,0,6,0,0,2,4,0,3,0,10,0,11,6,6 |];
